
Gurobi 11.0.1 (win64) logging started Mon May 13 15:36:55 2024

Set parameter LogFile to value "output/solver_log10.txt"
Gurobi Optimizer version 11.0.1 build v11.0.1rc0 (win64 - Windows 11.0 (22631.2))

CPU model: 11th Gen Intel(R) Core(TM) i7-1165G7 @ 2.80GHz, instruction set [SSE2|AVX|AVX2|AVX512]
Thread count: 4 physical cores, 8 logical processors, using up to 8 threads

Optimize a model with 2519 rows, 578 columns and 46749 nonzeros
Model fingerprint: 0x86ca576c
Variable types: 248 continuous, 330 integer (330 binary)
Coefficient statistics:
  Matrix range     [4e-01, 1e+05]
  Objective range  [1e+00, 1e+02]
  Bounds range     [1e+00, 1e+00]
  RHS range        [1e-02, 1e+05]

User MIP start produced solution with objective 75206.9 (0.00s)
User MIP start produced solution with objective 75206.9 (0.01s)
Loaded user MIP start with objective 75206.9

Presolve removed 201 rows and 176 columns
Presolve time: 0.06s
Presolved: 2318 rows, 402 columns, 44706 nonzeros
Variable types: 229 continuous, 173 integer (170 binary)

Root relaxation: objective 7.547237e+04, 647 iterations, 0.04 seconds (0.07 work units)

    Nodes    |    Current Node    |     Objective Bounds      |     Work
 Expl Unexpl |  Obj  Depth IntInf | Incumbent    BestBd   Gap | It/Node Time

     0     0 75472.3733    0    6 75206.9251 75472.3733  0.35%     -    0s
     0     0 75434.8523    0    9 75206.9251 75434.8523  0.30%     -    0s
     0     0 75434.8514    0    4 75206.9251 75434.8514  0.30%     -    0s
     0     0 75434.8510    0    4 75206.9251 75434.8510  0.30%     -    0s
     0     0 75434.8510    0    5 75206.9251 75434.8510  0.30%     -    0s
     0     0 75434.8510    0    5 75206.9251 75434.8510  0.30%     -    0s
     0     2 75434.8510    0    5 75206.9251 75434.8510  0.30%     -    0s
H   35    29                    75317.280254 75434.8510  0.16%  14.0    0s
*  466   112              15    75321.027138 75401.5098  0.11%  21.7    1s
H11365   673                    75324.991191 75381.5612  0.08%   5.5    3s

Cutting planes:
  Inf proof: 1

Explored 11911 nodes (71933 simplex iterations) in 5.01 seconds (9.77 work units)
Thread count was 8 (of 8 available processors)

Solution count 5: 75325 75325 75321 ... 75206.9

Optimal solution found (tolerance 1.00e-04)
Best objective 7.532499119115e+04, best bound 7.532769693104e+04, gap 0.0036%
